38695.7 0
281 280 287 286 285 284 283 334 335 336 337 338 339 340 341 343 344 345 346 364 363 361 362 347 348 349 350 351 352 354 353 413 414 415 416 417 419 418 410 411 412 356 355 357 358 359 360 401 402 403 409 384 383 385 408 407 406 405 404 400 399 397 398 369 370 372 371 396 395 375 376 377 378 379 380 393 394 391 392 390 389 388 387 386 382 425 424 423 422 421 420 426 427 428 429 430 432 437 438 436 435 434 433 431 381 445 444 443 442 446 447 448 449 450 441 440 439 454 455 456 457 458 1 4 2 3 9 10 11 16 15 14 13 12 23 22 31 36 37 38 39 42 41 40 35 34 33 32 30 29 28 27 26 25 24 21 20 19 568 569 570 18 17 8 7 6 5 0 573 572 571 460 459 463 462 461 500 499 452 453 451 312 311 310 309 308 505 504 503 502 501 498 497 496 464 465 466 467 468 469 474 473 472 471 470 495 494 518 519 520 521 524 525 493 492 491 490 489 531 532 533 488 534 535 487 486 485 484 536 483 481 482 475 476 480 479 477 478 539 537 538 540 188 187 178 177 176 175 172 174 173 108 109 107 542 541 543 544 545 546 547 103 104 105 106 117 118 119 120 121 122 123 71 72 73 74 75 76 77 78 88 89 87 90 92 93 94 97 95 96 98 99 100 102 101 551 550 548 549 564 566 567 565 563 562 561 560 559 558 557 556 552 553 554 555 91 46 45 44 43 47 48 49 55 56 83 53 54 52 50 51 84 85 86 82 57 58 59 81 80 79 61 60 63 62 64 65 66 67 68 70 69 124 125 126 127 138 137 139 140 141 136 135 134 133 132 131 130 129 128 116 115 114 110 111 112 113 161 160 155 156 159 157 158 145 146 144 143 142 151 150 149 152 148 147 153 154 165 164 166 167 163 162 168 170 171 169 180 181 179 182 186 185 183 184 194 195 196 197 198 199 200 201 202 204 203 208 207 206 205 209 210 211 212 213 214 215 216 217 223 224 222 221 220 218 219 193 192 191 190 226 225 189 227 228 229 230 231 232 238 239 246 247 245 248 249 250 251 252 254 253 255 256 257 258 259 260 261 262 263 264 265 266 267 268 269 271 272 273 274 275 292 291 293 270 294 295 296 297 298 299 300 241 242 244 243 240 237 236 235 234 233 530 529 528 526 523 522 517 516 515 514 513 527 512 511 510 509 506 507 508 302 301 303 307 304 306 319 320 321 317 318 305 313 316 314 315 374 373 322 323 324 325 326 327 328 329 366 367 368 365 342 330 331 332 333 288 289 290 276 277 278 279 282 
